coords = array2d(1..67, 1..2, [849, 330, 785, 714, 640, 380, 222, 254, 193,
    901, 308, 592, 191, 296, 951, 940, 123, 118, 327, 310, 920, 1,
    292, 401, 338, 39, 905, 198, 624, 2, 508, 141, 843, 426, 5, 501,
    785, 381, 230, 536, 147, 710, 34, 408, 266, 593, 550, 211, 236,
    233, 103, 793, 838, 865, 563, 51, 222, 416, 462, 216, 652, 538,
    563, 839, 656, 560, 897, 774, 826, 412, 198, 630, 691, 36, 113,
    13, 570, 147, 778, 614, 959, 376, 764, 85, 346, 297, 680, 916,
    678, 788, 48, 594, 970, 607, 101, 109, 774, 472, 275, 939, 481,
    208, 796, 841, 344, 946, 111, 547, 283, 301, 786, 277, 70, 610,
    398, 87, 276, 565, 151, 752, 899, 272, 167, 315, 614, 865, 161,
    823, 496, 479, 232, 784, 299, 813]);

n = 67;

